networks/zoo_62_745/zoo_62_745.txt
Number of groups: 29
Flow 14: {1 4} {4 3} {3 23} {23 54} 
Flow 19: {23 22} {22 31} {31 62} 
Flow 36: {3 14} {14 21} {21 19} {19 18} {18 49} 
Flow 56: {31 9} {9 10} {10 41} 
Flow 103: {25 24} {24 2} {2 33} 
Flow 104: {15 20} {20 14} {14 3} {3 34} 
Flow 121: {9 31} {31 22} {22 53} 
Flow 151: {6 5} {5 30} {30 26} {26 27} {27 58} 
Flow 180: {8 7} {7 26} {26 30} {30 5} {5 36} 
Flow 198: {10 17} {17 6} {6 37} 
Flow 202: {20 11} {11 12} {12 43} 
Flow 235: {12 13} {13 18} {18 19} {19 50} 
Flow 289: {16 5} {5 6} {6 17} {17 48} 
Flow 292: {11 20} {20 51} 
Flow 338: {17 10} {10 9} {9 40} 
Flow 362: {22 23} {23 3} {3 4} {4 35} 
Flow 408: {4 1} {1 2} {2 24} {24 55} 
Flow 422: {13 12} {12 11} {11 42} 
Flow 424: {19 21} {21 14} {14 45} 
Flow 426: {14 20} {20 15} {15 16} {16 47} 
Flow 475: {18 13} {13 44} 
Flow 544: {24 25} {25 26} {26 7} {7 38} 
Flow 545: {2 1} {1 8} {8 39} 
Flow 583: {7 8} {8 1} {1 32} 
Flow 637: {27 28} {28 29} {29 60} 
Flow 654: {5 16} {16 15} {15 46} 
Flow 663: {28 27} {27 26} {26 25} {25 56} 
Flow 688: {29 30} {30 61} 
Flow 715: {30 29} {29 28} {28 59} 
Time taken running everything: 9 seconds
