networks/zoo_62_745/zoo_62_745.sol
<?xml version = "1.0" encoding="UTF-8" standalone="yes"?>
<CPLEXSolution version="1.2">
 <header
   problemName="networks/zoo_62_745/zoo_62_745.lp"
   solutionName="incumbent"
   solutionIndex="-1"
   objectiveValue="29"
   solutionTypeValue="3"
   solutionTypeString="primal"
   solutionStatusValue="101"
   solutionStatusString="integer optimal solution"
   solutionMethodString="mip"
   primalFeasible="1"
   dualFeasible="1"
   MIPNodes="0"
   MIPIterations="3361"
   writeLevel="3"/>
 <quality
   epInt="1.0000000000000001e-05"
   epRHS="9.9999999999999995e-07"
   maxIntInfeas="0"
   maxPrimalInfeas="3.000000248221113e-09"
   maxX="4.0000000000000018"
   maxSlack="10.000000000000002"/>
 <variables>
  <variable name="Y(14,23)" index="802" value="1"/>
  <variable name="Y(19,31)" index="1110" value="1"/>
  <variable name="Y(36,18)" index="2117" value="1"/>
  <variable name="Y(56,10)" index="3309" value="1"/>
  <variable name="Y(95,24)" index="5663" value="1"/>
  <variable name="Y(103,2)" index="6121" value="1"/>
  <variable name="Y(104,3)" index="6182" value="1"/>
  <variable name="Y(121,22)" index="7221" value="1"/>
  <variable name="Y(151,27)" index="9026" value="1"/>
  <variable name="Y(180,5)" index="10744" value="1"/>
  <variable name="Y(198,6)" index="11825" value="1"/>
  <variable name="Y(202,12)" index="12071" value="1"/>
  <variable name="Y(235,19)" index="14058" value="1"/>
  <variable name="Y(289,17)" index="17296" value="1"/>
  <variable name="Y(292,20)" index="17479" value="1"/>
  <variable name="Y(338,9)" index="20228" value="1"/>
  <variable name="Y(362,4)" index="21663" value="1"/>
  <variable name="Y(422,11)" index="25270" value="1"/>
  <variable name="Y(424,14)" index="25393" value="1"/>
  <variable name="Y(426,16)" index="25515" value="1"/>
  <variable name="Y(475,13)" index="28452" value="1"/>
  <variable name="Y(544,7)" index="32586" value="1"/>
  <variable name="Y(545,8)" index="32647" value="1"/>
  <variable name="Y(612,1)" index="36660" value="1"/>
  <variable name="Y(637,29)" index="38188" value="1"/>
  <variable name="Y(654,15)" index="39194" value="1"/>
  <variable name="Y(663,25)" index="39744" value="1"/>
  <variable name="Y(666,30)" index="39929" value="1"/>
  <variable name="Y(715,28)" index="42867" value="1"/>
  <variable name="X(1,2,95)" index="44794" value="1"/>
  <variable name="X(1,4,14)" index="45458" value="1"/>
  <variable name="X(1,8,545)" index="46734" value="1"/>
  <variable name="X(1,32,612)" index="47546" value="1"/>
  <variable name="X(2,1,545)" index="48224" value="1"/>
  <variable name="X(2,24,95)" index="48519" value="1"/>
  <variable name="X(2,33,103)" index="49272" value="1"/>
  <variable name="X(3,4,362)" index="50276" value="1"/>
  <variable name="X(3,14,36)" index="50695" value="1"/>
  <variable name="X(3,23,14)" index="51418" value="1"/>
  <variable name="X(3,34,104)" index="52253" value="1"/>
  <variable name="X(4,1,95)" index="52989" value="1"/>
  <variable name="X(4,3,14)" index="53653" value="1"/>
  <variable name="X(4,35,362)" index="54746" value="1"/>
  <variable name="X(5,6,289)" index="55418" value="1"/>
  <variable name="X(5,16,654)" index="56528" value="1"/>
  <variable name="X(5,30,151)" index="56770" value="1"/>
  <variable name="X(5,36,180)" index="57544" value="1"/>
  <variable name="X(6,5,151)" index="58260" value="1"/>
  <variable name="X(6,17,289)" index="59143" value="1"/>
  <variable name="X(6,37,198)" index="59797" value="1"/>
  <variable name="X(7,8,612)" index="60956" value="1"/>
  <variable name="X(7,26,180)" index="61269" value="1"/>
  <variable name="X(7,38,544)" index="62378" value="1"/>
  <variable name="X(8,1,612)" index="63191" value="1"/>
  <variable name="X(8,7,180)" index="63504" value="1"/>
  <variable name="X(8,39,545)" index="64614" value="1"/>
  <variable name="X(9,10,56)" index="64870" value="1"/>
  <variable name="X(9,31,121)" index="65680" value="1"/>
  <variable name="X(9,40,338)" index="66642" value="1"/>
  <variable name="X(10,9,338)" index="67387" value="1"/>
  <variable name="X(10,17,198)" index="67992" value="1"/>
  <variable name="X(10,41,56)" index="68595" value="1"/>
  <variable name="X(11,12,202)" index="69486" value="1"/>
  <variable name="X(11,20,292)" index="70321" value="1"/>
  <variable name="X(11,42,422)" index="71196" value="1"/>
  <variable name="X(12,11,422)" index="71941" value="1"/>
  <variable name="X(12,13,235)" index="72499" value="1"/>
  <variable name="X(12,43,202)" index="73211" value="1"/>
  <variable name="X(13,12,422)" index="74176" value="1"/>
  <variable name="X(13,18,235)" index="74734" value="1"/>
  <variable name="X(13,44,475)" index="75719" value="1"/>
  <variable name="X(14,3,104)" index="76093" value="1"/>
  <variable name="X(14,20,426)" index="77160" value="1"/>
  <variable name="X(14,21,36)" index="77515" value="1"/>
  <variable name="X(14,45,424)" index="78648" value="1"/>
  <variable name="X(15,16,426)" index="79395" value="1"/>
  <variable name="X(15,20,104)" index="79818" value="1"/>
  <variable name="X(15,46,654)" index="81113" value="1"/>
  <variable name="X(16,5,289)" index="81493" value="1"/>
  <variable name="X(16,15,654)" index="82603" value="1"/>
  <variable name="X(16,47,426)" index="83120" value="1"/>
  <variable name="X(17,6,198)" index="83637" value="1"/>
  <variable name="X(17,10,338)" index="84522" value="1"/>
  <variable name="X(17,48,289)" index="85218" value="1"/>
  <variable name="X(18,13,475)" index="86149" value="1"/>
  <variable name="X(18,19,235)" index="86654" value="1"/>
  <variable name="X(18,49,36)" index="87200" value="1"/>
  <variable name="X(19,18,36)" index="87945" value="1"/>
  <variable name="X(19,21,424)" index="89078" value="1"/>
  <variable name="X(19,50,235)" index="89634" value="1"/>
  <variable name="X(20,11,202)" index="90346" value="1"/>
  <variable name="X(20,14,104)" index="90993" value="1"/>
  <variable name="X(20,15,426)" index="92060" value="1"/>
  <variable name="X(20,51,292)" index="92671" value="1"/>
  <variable name="X(21,14,424)" index="93548" value="1"/>
  <variable name="X(21,19,36)" index="93905" value="1"/>
  <variable name="X(22,23,362)" index="94976" value="1"/>
  <variable name="X(22,31,19)" index="95378" value="1"/>
  <variable name="X(22,53,121)" index="96225" value="1"/>
  <variable name="X(23,3,362)" index="97211" value="1"/>
  <variable name="X(23,22,19)" index="97613" value="1"/>
  <variable name="X(23,54,14)" index="98353" value="1"/>
  <variable name="X(24,2,103)" index="99187" value="1"/>
  <variable name="X(24,25,544)" index="100373" value="1"/>
  <variable name="X(24,55,95)" index="100669" value="1"/>
  <variable name="X(25,24,103)" index="101422" value="1"/>
  <variable name="X(25,26,544)" index="102608" value="1"/>
  <variable name="X(25,56,663)" index="103472" value="1"/>
  <variable name="X(26,7,544)" index="104098" value="1"/>
  <variable name="X(26,25,663)" index="104962" value="1"/>
  <variable name="X(26,27,151)" index="105195" value="1"/>
  <variable name="X(26,30,180)" index="105969" value="1"/>
  <variable name="X(27,26,663)" index="107197" value="1"/>
  <variable name="X(27,28,637)" index="107916" value="1"/>
  <variable name="X(27,58,151)" index="108175" value="1"/>
  <variable name="X(28,27,663)" index="109432" value="1"/>
  <variable name="X(28,29,637)" index="110151" value="1"/>
  <variable name="X(28,59,715)" index="110974" value="1"/>
  <variable name="X(29,28,715)" index="111719" value="1"/>
  <variable name="X(29,30,666)" index="112415" value="1"/>
  <variable name="X(29,60,637)" index="113131" value="1"/>
  <variable name="X(30,5,180)" index="113419" value="1"/>
  <variable name="X(30,26,151)" index="114135" value="1"/>
  <variable name="X(30,29,715)" index="115444" value="1"/>
  <variable name="X(30,61,666)" index="116140" value="1"/>
  <variable name="X(31,9,56)" index="116275" value="1"/>
  <variable name="X(31,22,121)" index="117085" value="1"/>
  <variable name="X(31,62,19)" index="117728" value="1"/>
  <variable name="C(14,1)" index="118517" value="1.0000000000000018"/>
  <variable name="C(14,4)" index="118518" value="2.0000000000000018"/>
  <variable name="C(14,3)" index="118519" value="3.0000000000000018"/>
  <variable name="C(14,23)" index="118520" value="4.0000000000000018"/>
  <variable name="C(19,22)" index="118544" value="1"/>
  <variable name="C(19,31)" index="118545" value="2"/>
  <variable name="C(36,14)" index="118647" value="1"/>
  <variable name="C(36,21)" index="118648" value="2"/>
  <variable name="C(36,19)" index="118649" value="3"/>
  <variable name="C(36,18)" index="118650" value="4"/>
  <variable name="C(56,9)" index="118749" value="1"/>
  <variable name="C(56,10)" index="118750" value="2"/>
  <variable name="C(95,1)" index="118942" value="1"/>
  <variable name="C(95,2)" index="118943" value="2"/>
  <variable name="C(95,24)" index="118944" value="3"/>
  <variable name="C(103,24)" index="118991" value="1"/>
  <variable name="C(103,2)" index="118992" value="2"/>
  <variable name="C(104,20)" index="118996" value="1"/>
  <variable name="C(104,14)" index="118997" value="2"/>
  <variable name="C(104,3)" index="118998" value="3.0000000030000002"/>
  <variable name="C(121,31)" index="119081" value="1"/>
  <variable name="C(121,22)" index="119082" value="2"/>
  <variable name="C(151,5)" index="119235" value="1"/>
  <variable name="C(151,30)" index="119236" value="2"/>
  <variable name="C(151,26)" index="119237" value="3"/>
  <variable name="C(151,27)" index="119238" value="4"/>
  <variable name="C(180,7)" index="119385" value="1"/>
  <variable name="C(180,26)" index="119386" value="2.0000000000000018"/>
  <variable name="C(180,30)" index="119387" value="3.0000000000000018"/>
  <variable name="C(180,5)" index="119388" value="4.0000000000000018"/>
  <variable name="C(198,17)" index="119487" value="1"/>
  <variable name="C(198,6)" index="119488" value="2"/>
  <variable name="C(202,11)" index="119520" value="1"/>
  <variable name="C(202,12)" index="119521" value="2"/>
  <variable name="C(235,13)" index="119706" value="1"/>
  <variable name="C(235,18)" index="119707" value="2"/>
  <variable name="C(235,19)" index="119708" value="3"/>
  <variable name="C(289,5)" index="120066" value="1"/>
  <variable name="C(289,6)" index="120067" value="2"/>
  <variable name="C(289,17)" index="120068" value="3"/>
  <variable name="C(292,20)" index="120077" value="1"/>
  <variable name="C(338,10)" index="120344" value="1"/>
  <variable name="C(338,9)" index="120345" value="2"/>
  <variable name="C(362,23)" index="120471" value="1"/>
  <variable name="C(362,3)" index="120472" value="2"/>
  <variable name="C(362,4)" index="120473" value="3"/>
  <variable name="C(422,12)" index="120866" value="1"/>
  <variable name="C(422,11)" index="120867" value="2"/>
  <variable name="C(424,21)" index="120873" value="1"/>
  <variable name="C(424,14)" index="120874" value="2"/>
  <variable name="C(426,20)" index="120883" value="1"/>
  <variable name="C(426,15)" index="120884" value="2"/>
  <variable name="C(426,16)" index="120885" value="3"/>
  <variable name="C(475,13)" index="121162" value="1"/>
  <variable name="C(544,25)" index="121543" value="1"/>
  <variable name="C(544,26)" index="121544" value="2"/>
  <variable name="C(544,7)" index="121545" value="3"/>
  <variable name="C(545,1)" index="121548" value="1"/>
  <variable name="C(545,8)" index="121549" value="2"/>
  <variable name="C(612,8)" index="121931" value="1"/>
  <variable name="C(612,1)" index="121932" value="2"/>
  <variable name="C(637,28)" index="122089" value="1"/>
  <variable name="C(637,29)" index="122090" value="2"/>
  <variable name="C(654,16)" index="122202" value="1"/>
  <variable name="C(654,15)" index="122203" value="2"/>
  <variable name="C(663,27)" index="122268" value="1"/>
  <variable name="C(663,26)" index="122269" value="2"/>
  <variable name="C(663,25)" index="122270" value="3"/>
  <variable name="C(666,30)" index="122277" value="1"/>
  <variable name="C(715,29)" index="122548" value="1"/>
  <variable name="C(715,28)" index="122549" value="2"/>
 </variables>
</CPLEXSolution>
